c description: Subset cardinality formula for Random regular bipartite with (9,9) vertices and left degree 4 + 1 random edges
c generator: CNFgen (0.9.0)
c copyright: (C) 2012-2020 Massimo Lauria <massimo.lauria@uniroma1.it>
c url: https://massimolauria.net/cnfgen
c command line: cnfgen subsetcard 9
c
p cnf 37 84
1 2 3 0
1 2 4 0
1 3 4 0
2 3 4 0
5 6 7 0
5 6 8 0
5 7 8 0
6 7 8 0
9 10 11 0
9 10 12 0
9 11 12 0
10 11 12 0
13 14 15 0
13 14 16 0
13 15 16 0
14 15 16 0
17 18 19 0
17 18 20 0
17 19 20 0
18 19 20 0
21 22 23 0
21 22 24 0
21 23 24 0
22 23 24 0
25 26 27 0
25 26 28 0
25 27 28 0
26 27 28 0
29 30 31 0
29 30 32 0
29 30 33 0
29 31 32 0
29 31 33 0
29 32 33 0
30 31 32 0
30 31 33 0
30 32 33 0
31 32 33 0
34 35 36 0
34 35 37 0
34 36 37 0
35 36 37 0
-1 -13 -29 0
-1 -13 -34 0
-1 -29 -34 0
-13 -29 -34 0
-2 -5 -9 0
-2 -5 -21 0
-2 -5 -30 0
-2 -9 -21 0
-2 -9 -30 0
-2 -21 -30 0
-5 -9 -21 0
-5 -9 -30 0
-5 -21 -30 0
-9 -21 -30 0
-14 -22 -25 0
-14 -22 -31 0
-14 -25 -31 0
-22 -25 -31 0
-6 -23 -26 0
-6 -23 -32 0
-6 -26 -32 0
-23 -26 -32 0
-10 -17 -33 0
-10 -17 -35 0
-10 -33 -35 0
-17 -33 -35 0
-3 -7 -11 0
-3 -7 -24 0
-3 -11 -24 0
-7 -11 -24 0
-4 -12 -15 0
-4 -12 -18 0
-4 -15 -18 0
-12 -15 -18 0
-8 -19 -27 0
-8 -19 -36 0
-8 -27 -36 0
-19 -27 -36 0
-16 -20 -28 0
-16 -20 -37 0
-16 -28 -37 0
-20 -28 -37 0
